(set-info :status unknown)
(declare-const symbol_216 (_ BitVec 32))
(declare-const symbol_140 (_ BitVec 32))
(declare-const symbol_71 (_ BitVec 32))
(declare-const symbol_312 (_ BitVec 32))
(declare-const symbol_222 (_ BitVec 32))
(declare-const symbol_78 (_ BitVec 32))
(declare-const symbol_298 (_ BitVec 32))
(declare-const symbol_338 (_ BitVec 32))
(declare-const symbol_73 (_ BitVec 32))
(declare-const symbol_42 (_ BitVec 32))
(declare-const symbol_156 (_ BitVec 32))
(declare-const symbol_91 (_ BitVec 32))
(declare-const symbol_198 (_ BitVec 32))
(declare-const symbol_296 (_ BitVec 32))
(declare-const symbol_152 (_ BitVec 32))
(declare-const symbol_247 (_ BitVec 32))
(declare-const symbol_224 (_ BitVec 32))
(declare-const symbol_272 (_ BitVec 32))
(declare-const symbol_130 (_ BitVec 32))
(declare-const symbol_243 (_ BitVec 32))
(declare-const symbol_128 (_ BitVec 32))
(declare-const symbol_60 (_ BitVec 32))
(declare-const symbol_84 (_ BitVec 32))
(declare-const symbol_26 (_ BitVec 32))
(declare-const symbol_284 (_ BitVec 32))
(declare-const symbol_241 (_ BitVec 32))
(declare-const symbol_28 (_ BitVec 32))
(declare-const symbol_352 (_ BitVec 32))
(declare-const symbol_158 (_ BitVec 32))
(declare-const symbol_348 (_ BitVec 32))
(declare-const symbol_166 (_ BitVec 32))
(declare-const symbol_44 (_ BitVec 32))
(declare-const symbol_251 (_ BitVec 32))
(declare-const symbol_229 (_ BitVec 32))
(declare-const symbol_103 (_ BitVec 32))
(declare-const symbol_96 (_ BitVec 32))
(declare-const symbol_329 (_ BitVec 32))
(declare-const symbol_181 (_ BitVec 32))
(declare-const symbol_231 (_ BitVec 32))
(declare-const symbol_52 (_ BitVec 32))
(declare-const symbol_16 (_ BitVec 32))
(declare-const symbol_288 (_ BitVec 32))
(declare-const symbol_14 (_ BitVec 32))
(declare-const symbol_46 (_ BitVec 32))
(declare-const symbol_24 (_ BitVec 32))
(declare-const symbol_264 (_ BitVec 32))
(declare-const symbol_185 (_ BitVec 32))
(declare-const symbol_22 (_ BitVec 32))
(declare-const symbol_67 (_ BitVec 32))
(declare-const symbol_62 (_ BitVec 32))
(declare-const symbol_322 (_ BitVec 32))
(declare-const symbol_233 (_ BitVec 32))
(declare-const symbol_80 (_ BitVec 32))
(declare-const symbol_336 (_ BitVec 32))
(declare-const symbol_328 (_ BitVec 32))
(declare-const symbol_50 (_ BitVec 32))
(declare-const symbol_358 (_ BitVec 32))
(declare-const symbol_274 (_ BitVec 32))
(declare-const symbol_344 (_ BitVec 32))
(declare-const symbol_200 (_ BitVec 32))
(declare-const symbol_40 (_ BitVec 32))
(declare-const symbol_30 (_ BitVec 32))
(declare-const symbol_300 (_ BitVec 32))
(declare-const symbol_278 (_ BitVec 32))
(declare-const symbol_235 (_ BitVec 32))
(declare-const symbol_318 (_ BitVec 32))
(declare-const symbol_136 (_ BitVec 32))
(declare-const symbol_316 (_ BitVec 32))
(declare-const symbol_218 (_ BitVec 32))
(declare-const symbol_2 (_ BitVec 32))
(declare-const symbol_326 (_ BitVec 32))
(declare-const symbol_101 (_ BitVec 32))
(declare-const symbol_350 (_ BitVec 32))
(declare-const symbol_154 (_ BitVec 32))
(declare-const symbol_342 (_ BitVec 32))
(declare-const symbol_98 (_ BitVec 32))
(declare-const symbol_20 (_ BitVec 32))
(declare-const symbol_239 (_ BitVec 32))
(declare-const symbol_7 (_ BitVec 32))
(declare-const symbol_340 (_ BitVec 32))
(declare-const symbol_320 (_ BitVec 32))
(declare-const symbol_212 (_ BitVec 32))
(declare-const symbol_208 (_ BitVec 32))
(declare-const symbol_194 (_ BitVec 32))
(declare-const symbol_362 (_ BitVec 32))
(declare-const symbol_210 (_ BitVec 32))
(declare-const symbol_12 (_ BitVec 32))
(declare-const symbol_290 (_ BitVec 32))
(declare-const symbol_360 (_ BitVec 32))
(declare-const symbol_76 (_ BitVec 32))
(declare-const symbol_5 (_ BitVec 32))
(declare-const symbol_55 (_ BitVec 32))
(declare-const symbol_32 (_ BitVec 32))
(declare-const symbol_162 (_ BitVec 32))
(declare-const symbol_150 (_ BitVec 32))
(declare-const symbol_346 (_ BitVec 32))
(declare-const symbol_304 (_ BitVec 32))
(declare-const symbol_260 (_ BitVec 32))
(declare-const symbol_160 (_ BitVec 32))
(declare-const symbol_294 (_ BitVec 32))
(declare-const symbol_227 (_ BitVec 32))
(declare-const symbol_175 (_ BitVec 32))
(declare-const symbol_144 (_ BitVec 32))
(declare-const symbol_134 (_ BitVec 32))
(declare-const symbol_118 (_ BitVec 32))
(declare-const symbol_109 (_ BitVec 32))
(declare-const symbol_356 (_ BitVec 32))
(declare-const symbol_354 (_ BitVec 32))
(declare-const symbol_314 (_ BitVec 32))
(declare-const symbol_164 (_ BitVec 32))
(declare-const symbol_132 (_ BitVec 32))
(declare-const symbol_113 (_ BitVec 32))
(declare-const symbol_334 (_ BitVec 32))
(declare-const symbol_302 (_ BitVec 32))
(declare-const symbol_253 (_ BitVec 32))
(declare-const symbol_204 (_ BitVec 32))
(declare-const symbol_168 (_ BitVec 32))
(declare-const symbol_116 (_ BitVec 32))
(declare-const symbol_220 (_ BitVec 32))
(declare-const symbol_10 (_ BitVec 32))
(declare-const symbol_310 (_ BitVec 32))
(declare-const symbol_75 (_ BitVec 32))
(declare-const symbol_237 (_ BitVec 32))
(declare-const symbol_249 (_ BitVec 32))
(declare-const symbol_0 (_ BitVec 32))
(declare-const symbol_82 (_ BitVec 32))
(declare-const symbol_306 (_ BitVec 32))
(declare-const symbol_192 (_ BitVec 32))
(declare-const symbol_188 (_ BitVec 32))
(declare-const symbol_179 (_ BitVec 32))
(declare-const symbol_65 (_ BitVec 32))
(declare-const symbol_36 (_ BitVec 32))
(declare-const symbol_64 (_ BitVec 32))
(declare-const symbol_183 (_ BitVec 32))
(declare-const symbol_270 (_ BitVec 32))
(declare-const symbol_34 (_ BitVec 32))
(declare-const symbol_3 (_ BitVec 32))
(declare-const symbol_126 (_ BitVec 32))
(declare-const symbol_38 (_ BitVec 32))
(declare-const symbol_280 (_ BitVec 32))
(declare-const symbol_262 (_ BitVec 32))
(declare-const symbol_196 (_ BitVec 32))
(declare-const symbol_105 (_ BitVec 32))
(declare-const symbol_57 (_ BitVec 32))
(declare-const symbol_282 (_ BitVec 32))
(declare-const symbol_202 (_ BitVec 32))
(declare-const symbol_94 (_ BitVec 32))
(declare-const symbol_173 (_ BitVec 32))
(declare-const symbol_177 (_ BitVec 32))
(declare-const symbol_122 (_ BitVec 32))
(declare-const symbol_258 (_ BitVec 32))
(declare-const symbol_18 (_ BitVec 32))
(declare-const symbol_308 (_ BitVec 32))
(declare-const symbol_266 (_ BitVec 32))
(declare-const symbol_170 (_ BitVec 32))
(declare-const symbol_111 (_ BitVec 32))
(declare-const symbol_364 (_ BitVec 32))
(declare-const symbol_120 (_ BitVec 32))
(declare-const symbol_324 (_ BitVec 32))
(declare-const symbol_190 (_ BitVec 32))
(declare-const symbol_99 (_ BitVec 32))
(declare-const symbol_107 (_ BitVec 32))
(declare-const symbol_142 (_ BitVec 32))
(declare-const symbol_89 (_ BitVec 32))
(declare-const symbol_292 (_ BitVec 32))
(declare-const symbol_286 (_ BitVec 32))
(declare-const symbol_256 (_ BitVec 32))
(declare-const symbol_124 (_ BitVec 32))
(declare-const symbol_206 (_ BitVec 32))
(declare-const symbol_53 (_ BitVec 32))
(declare-const symbol_276 (_ BitVec 32))
(declare-const symbol_59 (_ BitVec 32))
(declare-const symbol_268 (_ BitVec 32))
(declare-const symbol_146 (_ BitVec 32))
(declare-const symbol_148 (_ BitVec 32))
(declare-const symbol_138 (_ BitVec 32))
(declare-const symbol_69 (_ BitVec 32))
(declare-const symbol_332 (_ BitVec 32))
(declare-const symbol_245 (_ BitVec 32))
(declare-const symbol_214 (_ BitVec 32))
(declare-const symbol_87 (_ BitVec 32))
(declare-const symbol_48 (_ BitVec 32))
(assert (= symbol_364 (_ bv8 32)))
(assert (not (not (= symbol_364 (_ bv7 32)))))
(assert (not (not (= symbol_362 (_ bv7 32)))))
(assert (not (not (= symbol_360 (_ bv7 32)))))
(assert (not (not (= symbol_358 (_ bv7 32)))))
(assert (not (not (= symbol_356 (_ bv7 32)))))
(assert (not (not (= symbol_354 (_ bv7 32)))))
(assert (not (not (= symbol_352 (_ bv7 32)))))
(assert (not (not (= symbol_350 (_ bv7 32)))))
(assert (not (not (= symbol_348 (_ bv7 32)))))
(assert (not (not (= symbol_346 (_ bv7 32)))))
(assert (not (not (= symbol_344 (_ bv7 32)))))
(assert (not (not (= symbol_342 (_ bv7 32)))))
(assert (not (not (= symbol_340 (_ bv7 32)))))
(assert (not (not (= symbol_338 (_ bv7 32)))))
(assert (not (not (= symbol_336 (_ bv7 32)))))
(assert (not (not (= symbol_334 (_ bv7 32)))))
(assert (not (not (= symbol_332 (_ bv7 32)))))
(assert (not (not (= symbol_329 (_ bv7 32)))))
(assert (not (not (= symbol_328 (_ bv7 32)))))
(assert (not (not (= symbol_326 (_ bv7 32)))))
(assert (not (not (= symbol_324 (_ bv7 32)))))
(assert (not (not (= symbol_322 (_ bv7 32)))))
(assert (not (not (= symbol_320 (_ bv7 32)))))
(assert (not (not (= symbol_318 (_ bv7 32)))))
(assert (not (not (= symbol_316 (_ bv7 32)))))
(assert (not (not (= symbol_314 (_ bv7 32)))))
(assert (not (not (= symbol_312 (_ bv7 32)))))
(assert (not (not (= symbol_310 (_ bv7 32)))))
(assert (not (not (= symbol_308 (_ bv7 32)))))
(assert (not (not (= symbol_306 (_ bv7 32)))))
(assert (not (not (= symbol_304 (_ bv7 32)))))
(assert (not (not (= symbol_302 (_ bv7 32)))))
(assert (not (not (= symbol_300 (_ bv7 32)))))
(assert (not (not (= symbol_298 (_ bv7 32)))))
(assert (not (not (= symbol_296 (_ bv7 32)))))
(assert (not (not (= symbol_294 (_ bv7 32)))))
(assert (not (not (= symbol_292 (_ bv7 32)))))
(assert (not (not (= symbol_290 (_ bv7 32)))))
(assert (not (not (= symbol_288 (_ bv7 32)))))
(assert (not (not (= symbol_286 (_ bv7 32)))))
(assert (not (not (= symbol_284 (_ bv7 32)))))
(assert (not (not (= symbol_282 (_ bv7 32)))))
(assert (not (not (= symbol_280 (_ bv7 32)))))
(assert (not (not (= symbol_278 (_ bv7 32)))))
(assert (not (not (= symbol_276 (_ bv7 32)))))
(assert (not (not (= symbol_274 (_ bv7 32)))))
(assert (not (not (= symbol_272 (_ bv7 32)))))
(assert (not (not (= symbol_270 (_ bv7 32)))))
(assert (not (not (= symbol_268 (_ bv7 32)))))
(assert (not (not (= symbol_266 (_ bv7 32)))))
(assert (not (not (= symbol_264 (_ bv7 32)))))
(assert (not (not (= symbol_262 (_ bv7 32)))))
(assert (not (not (= symbol_260 (_ bv7 32)))))
(assert (not (not (= symbol_258 (_ bv7 32)))))
(assert (not (not (= symbol_256 (_ bv7 32)))))
(assert (not (not (= symbol_253 (_ bv7 32)))))
(assert (not (not (= symbol_251 (_ bv7 32)))))
(assert (not (not (= symbol_249 (_ bv7 32)))))
(assert (not (not (= symbol_247 (_ bv7 32)))))
(assert (not (not (= symbol_245 (_ bv7 32)))))
(assert (not (not (= symbol_243 (_ bv7 32)))))
(assert (not (not (= symbol_241 (_ bv7 32)))))
(assert (not (not (= symbol_239 (_ bv7 32)))))
(assert (not (not (= symbol_237 (_ bv7 32)))))
(assert (not (not (= symbol_235 (_ bv7 32)))))
(assert (not (not (= symbol_233 (_ bv7 32)))))
(assert (not (not (= symbol_231 (_ bv7 32)))))
(assert (not (not (= symbol_229 (_ bv7 32)))))
(assert (not (not (= symbol_227 (_ bv7 32)))))
(assert (not (not (= symbol_224 (_ bv7 32)))))
(assert (not (not (= symbol_222 (_ bv7 32)))))
(assert (not (not (= symbol_220 (_ bv7 32)))))
(assert (not (not (= symbol_218 (_ bv7 32)))))
(assert (not (not (= symbol_216 (_ bv7 32)))))
(assert (not (not (= symbol_214 (_ bv7 32)))))
(assert (not (not (= symbol_212 (_ bv7 32)))))
(assert (not (not (= symbol_210 (_ bv7 32)))))
(assert (not (not (= symbol_208 (_ bv7 32)))))
(assert (not (not (= symbol_206 (_ bv7 32)))))
(assert (not (not (= symbol_204 (_ bv7 32)))))
(assert (not (not (= symbol_202 (_ bv7 32)))))
(assert (not (not (= symbol_200 (_ bv7 32)))))
(assert (not (not (= symbol_198 (_ bv7 32)))))
(assert (not (not (= symbol_196 (_ bv7 32)))))
(assert (not (not (= symbol_194 (_ bv7 32)))))
(assert (not (not (= symbol_192 (_ bv7 32)))))
(assert (not (not (= symbol_190 (_ bv7 32)))))
(assert (not (not (= symbol_188 (_ bv7 32)))))
(assert (not (not (= symbol_185 (_ bv7 32)))))
(assert (not (not (= symbol_183 (_ bv7 32)))))
(assert (not (not (= symbol_181 (_ bv7 32)))))
(assert (not (not (= symbol_179 (_ bv7 32)))))
(assert (not (not (= symbol_177 (_ bv7 32)))))
(assert (not (not (= symbol_175 (_ bv7 32)))))
(assert (not (not (= symbol_173 (_ bv7 32)))))
(assert (not (not (= symbol_170 (_ bv7 32)))))
(assert (not (not (= symbol_168 (_ bv7 32)))))
(assert (not (not (= symbol_166 (_ bv7 32)))))
(assert (not (not (= symbol_164 (_ bv7 32)))))
(assert (not (not (= symbol_162 (_ bv7 32)))))
(assert (not (not (= symbol_160 (_ bv7 32)))))
(assert (not (not (= symbol_158 (_ bv7 32)))))
(assert (not (not (= symbol_156 (_ bv7 32)))))
(assert (not (not (= symbol_154 (_ bv7 32)))))
(assert (not (not (= symbol_152 (_ bv7 32)))))
(assert (not (not (= symbol_150 (_ bv7 32)))))
(assert (not (not (= symbol_148 (_ bv7 32)))))
(assert (not (not (= symbol_146 (_ bv7 32)))))
(assert (not (not (= symbol_144 (_ bv7 32)))))
(assert (not (not (= symbol_142 (_ bv7 32)))))
(assert (not (not (= symbol_140 (_ bv7 32)))))
(assert (not (not (= symbol_138 (_ bv7 32)))))
(assert (not (not (= symbol_136 (_ bv7 32)))))
(assert (not (not (= symbol_134 (_ bv7 32)))))
(assert (not (not (= symbol_132 (_ bv7 32)))))
(assert (not (not (= symbol_130 (_ bv7 32)))))
(assert (not (not (= symbol_128 (_ bv7 32)))))
(assert (not (not (= symbol_126 (_ bv7 32)))))
(assert (not (not (= symbol_124 (_ bv7 32)))))
(assert (not (not (= symbol_122 (_ bv7 32)))))
(assert (not (not (= symbol_120 (_ bv7 32)))))
(assert (not (not (= symbol_118 (_ bv7 32)))))
(assert (not (not (= symbol_116 (_ bv7 32)))))
(assert (not (not (= symbol_113 (_ bv7 32)))))
(assert (not (not (= symbol_111 (_ bv7 32)))))
(assert (not (not (= symbol_109 (_ bv7 32)))))
(assert (not (not (= symbol_107 (_ bv7 32)))))
(assert (not (not (= symbol_105 (_ bv7 32)))))
(assert (not (not (= symbol_103 (_ bv7 32)))))
(assert (not (not (= symbol_101 (_ bv7 32)))))
(assert (not (not (= symbol_99 (_ bv7 32)))))
(assert (not (not (= symbol_98 (_ bv7 32)))))
(assert (not (not (= symbol_96 (_ bv7 32)))))
(assert (not (not (= symbol_94 (_ bv7 32)))))
(assert (not (not (= symbol_91 (_ bv7 32)))))
(assert (not (not (= symbol_89 (_ bv7 32)))))
(assert (not (not (= symbol_87 (_ bv7 32)))))
(assert (not (not (= symbol_84 (_ bv7 32)))))
(assert (not (not (= symbol_82 (_ bv7 32)))))
(assert (not (not (= symbol_80 (_ bv7 32)))))
(assert (not (not (= symbol_78 (_ bv7 32)))))
(assert (not (not (= symbol_76 (_ bv7 32)))))
(assert (not (not (= symbol_75 (_ bv7 32)))))
(assert (not (not (= symbol_73 (_ bv7 32)))))
(assert (not (not (= symbol_71 (_ bv7 32)))))
(assert (not (not (= symbol_69 (_ bv7 32)))))
(assert (not (not (= symbol_67 (_ bv7 32)))))
(assert (not (not (= symbol_65 (_ bv7 32)))))
(assert (not (not (= symbol_64 (_ bv7 32)))))
(assert (not (not (= symbol_62 (_ bv7 32)))))
(assert (not (not (= symbol_60 (_ bv7 32)))))
(assert (not (not (= symbol_59 (_ bv7 32)))))
(assert (not (not (= symbol_57 (_ bv7 32)))))
(assert (not (not (= symbol_55 (_ bv7 32)))))
(assert (not (not (= symbol_53 (_ bv7 32)))))
(assert (not (not (= symbol_52 (_ bv7 32)))))
(assert (not (not (= symbol_50 (_ bv7 32)))))
(assert (not (not (= symbol_48 (_ bv7 32)))))
(assert (not (not (= symbol_46 (_ bv7 32)))))
(assert (not (not (= symbol_44 (_ bv7 32)))))
(assert (not (not (= symbol_42 (_ bv7 32)))))
(assert (not (not (= symbol_40 (_ bv7 32)))))
(assert (not (not (= symbol_38 (_ bv7 32)))))
(assert (not (not (= symbol_36 (_ bv7 32)))))
(assert (not (not (= symbol_34 (_ bv7 32)))))
(assert (not (not (= symbol_32 (_ bv7 32)))))
(assert (not (not (= symbol_30 (_ bv7 32)))))
(assert (not (not (= symbol_28 (_ bv7 32)))))
(assert (not (not (= symbol_26 (_ bv7 32)))))
(assert (not (not (= symbol_24 (_ bv7 32)))))
(assert (not (not (= symbol_22 (_ bv7 32)))))
(assert (not (not (= symbol_20 (_ bv7 32)))))
(assert (not (not (= symbol_18 (_ bv7 32)))))
(assert (not (not (= symbol_16 (_ bv7 32)))))
(assert (not (not (= symbol_14 (_ bv7 32)))))
(assert (not (not (= symbol_12 (_ bv7 32)))))
(assert (not (not (= symbol_10 (_ bv7 32)))))
(assert (not (not (= symbol_7 (_ bv7 32)))))
(assert (not (not (= symbol_5 (_ bv7 32)))))
(assert (not (not (= symbol_3 (_ bv7 32)))))
(assert (not (not (= symbol_2 (_ bv7 32)))))
(assert (not (not (= symbol_0 (_ bv10 32)))))
(assert (not (= symbol_0 (_ bv7 32))))
(check-sat)